(declare-datatypes () ((Sign (Pos) (Neg))))
(declare-datatypes () ((Nat (Zero) (Succ (pred Nat)))))
(declare-datatypes () ((Z (P (P_0 Nat)) (N (N_0 Nat)))))
(declare-fun toInteger (Sign Nat) Z)
(declare-fun sign (Z) Sign)
(declare-fun plus (Nat Nat) Nat)
(declare-fun opposite (Sign) Sign)
(declare-fun timesSign (Sign Sign) Sign)
(declare-fun mult (Nat Nat) Nat)
(declare-fun minus (Nat Nat) Z)
(declare-fun plus2 (Z Z) Z)
(declare-fun absVal (Z) Nat)
(declare-fun times (Z Z) Z)
(assert
  (not
    (forall ((x Z) (y Z) (z Z))
      (= (times x (plus2 y z)) (plus2 (times x y) (times x z))))))
(assert
  (forall ((x Sign) (y Nat))
    (= (toInteger x y)
      (ite (is-Neg x) (ite (is-Succ y) (N (pred y)) (P Zero)) (P y)))))
(assert (forall ((x Z)) (= (sign x) (ite (is-N x) Neg Pos))))
(assert
  (forall ((x Nat) (y Nat))
    (= (plus x y) (ite (is-Succ x) (Succ (plus (pred x) y)) y))))
(assert
  (forall ((x Sign)) (= (opposite x) (ite (is-Neg x) Pos Neg))))
(assert
  (forall ((x Sign) (y Sign))
    (= (timesSign x y) (ite (is-Neg x) (opposite y) y))))
(assert
  (forall ((x Nat) (y Nat))
    (= (mult x y) (ite (is-Succ x) (plus y (mult (pred x) y)) Zero))))
(assert
  (forall ((x Nat) (y Nat))
    (= (minus x y)
      (ite
        (is-Succ x)
        (ite (is-Succ y) (minus (pred x) (pred y)) (P (Succ (pred x))))
        (ite (is-Succ y) (N (pred y)) (P Zero))))))
(assert
  (forall ((x Z) (y Z))
    (= (plus2 x y)
      (ite
        (is-N x)
        (ite
          (is-N y) (N (Succ (plus (N_0 x) (N_0 y))))
          (minus (P_0 y) (Succ (N_0 x))))
        (ite
          (is-N y) (minus (P_0 x) (Succ (N_0 y)))
          (P (plus (P_0 x) (P_0 y))))))))
(assert
  (forall ((x Z))
    (= (absVal x) (ite (is-N x) (Succ (N_0 x)) (P_0 x)))))
(assert
  (forall ((x Z) (y Z))
    (= (times x y)
      (toInteger (timesSign (sign x) (sign y))
        (mult (absVal x) (absVal y))))))
(check-sat)
